NAME : TA-Prioritized.10852.tour
COMMENT : Length = 10852
COMMENT : Found by LKH-3 [Keld Helsgaun] Tue Feb 13 22:30:20 2024
TYPE : TOUR
DIMENSION : 125
TOUR_SECTION
1
40
23
76
108
118
63
82
12
56
81
97
105
10
66
90
37
102
115
29
22
48
41
19
42
99
123
64
87
78
109
55
4
26
24
58
111
11
43
5
36
121
6
35
72
95
2
39
54
114
119
86
122
110
61
91
98
7
80
14
70
21
28
74
38
71
34
116
59
32
65
62
124
112
83
44
125
107
17
33
67
49
68
8
53
92
106
3
30
88
96
101
9
47
69
104
120
79
13
45
20
51
18
31
94
57
73
50
46
117
25
77
84
75
15
27
100
85
16
52
89
93
103
113
60
-1
EOF
